(set-option :print-success false)
(set-logic QF_UF)
(declare-sort x68 0)
(declare-sort x117 0)
(declare-fun x143 (x117 x117) x117)
(declare-fun x25 () x117)
(declare-fun x22 () x117)
(declare-fun x77 () x117)
(declare-fun x65 () x117)
(declare-fun x75 () x117)
(assert (not (and (= x65 (x143 x25 x25)) (and (= (x143 x25 x65) x77) (and (= x22 (x143 x65 x65)) (= x75 (x143 x65 x25)))))))
(assert (not (and (and (= (x143 x22 x75) x25) (and (= x65 (x143 x75 x75)) (= (x143 x75 x22) x77))) (= x75 (x143 x22 x22)))))
(assert (not (and (= (x143 x22 x22) x25) (and (and (= (x143 x25 x22) x77) (= (x143 x25 x25) x75)) (= x65 (x143 x22 x25))))))
(assert (not (and (= x75 (x143 x25 x25)) (and (= (x143 x25 x75) x77) (and (= (x143 x75 x75) x22) (= x65 (x143 x75 x25)))))))
(assert (not (and (and (= (x143 x25 x77) x22) (and (= x65 (x143 x77 x77)) (= (x143 x77 x25) x75))) (= (x143 x25 x25) x77))))
(assert (not (and (= (x143 x65 x65) x77) (and (= (x143 x65 x77) x22) (and (= (x143 x77 x65) x75) (= x25 (x143 x77 x77)))))))
(assert (not (and (= (x143 x65 x65) x25) (and (= (x143 x65 x25) x75) (and (= (x143 x25 x25) x22) (= (x143 x25 x65) x77))))))
(assert (not (and (= x75 (x143 x77 x77)) (and (= x65 (x143 x77 x75)) (and (= (x143 x75 x75) x25) (= (x143 x75 x77) x22))))))
(assert (not (and (= x75 (x143 x65 x65)) (and (= x77 (x143 x65 x75)) (and (= (x143 x75 x65) x25) (= x22 (x143 x75 x75)))))))
(assert (not (and (and (and (= x75 (x143 x77 x77)) (= (x143 x77 x25) x65)) (= x22 (x143 x25 x77))) (= x77 (x143 x25 x25)))))
(assert (not (and (and (and (= (x143 x25 x25) x77) (= (x143 x25 x75) x22)) (= x65 (x143 x75 x25))) (= (x143 x75 x75) x25))))
(assert (not (and (and (and (= x77 (x143 x65 x65)) (= (x143 x65 x75) x25)) (= (x143 x75 x65) x22)) (= x65 (x143 x75 x75)))))
(assert (not (and (= x22 (x143 x25 x25)) (and (and (= x77 (x143 x22 x25)) (= (x143 x22 x22) x75)) (= x65 (x143 x25 x22))))))
(assert (not (and (= (x143 x75 x75) x25) (and (= (x143 x75 x25) x77) (and (= x22 (x143 x25 x25)) (= x65 (x143 x25 x75)))))))
(assert (and (and (and (or (or (= x65 (x143 x75 (x143 x75 x65))) (or (= (x143 x75 (x143 x75 x75)) x75) (or (= (x143 x75 (x143 x75 x77)) x77) (= (x143 x75 (x143 x75 x25)) x25)))) (= x22 (x143 x75 (x143 x75 x22)))) (and (or (or (= (x143 x25 (x143 x25 x65)) x65) (or (= x75 (x143 x25 (x143 x25 x75))) (or (= (x143 x25 (x143 x25 x77)) x77) (= (x143 x25 (x143 x25 x25)) x25)))) (= x22 (x143 x25 (x143 x25 x22)))) (or (or (= x65 (x143 x77 (x143 x77 x65))) (or (or (= (x143 x77 (x143 x77 x77)) x77) (= x25 (x143 x77 (x143 x77 x25)))) (= x75 (x143 x77 (x143 x77 x75))))) (= x22 (x143 x77 (x143 x77 x22)))))) (or (= x22 (x143 x65 (x143 x65 x22))) (or (or (or (= x77 (x143 x65 (x143 x65 x77))) (= x25 (x143 x65 (x143 x65 x25)))) (= x75 (x143 x65 (x143 x65 x75)))) (= (x143 x65 (x143 x65 x65)) x65)))) (or (or (or (= (x143 x22 (x143 x22 x75)) x75) (or (= x77 (x143 x22 (x143 x22 x77))) (= x25 (x143 x22 (x143 x22 x25))))) (= x65 (x143 x22 (x143 x22 x65)))) (= (x143 x22 (x143 x22 x22)) x22))))
(assert (not (and (and (and (= (x143 x22 x77) x25) (= x75 (x143 x22 x22))) (= (x143 x77 x22) x65)) (= x22 (x143 x77 x77)))))
(assert (not (and (= x22 (x143 x65 x65)) (and (and (= x77 (x143 x22 x65)) (= (x143 x22 x22) x25)) (= x75 (x143 x65 x22))))))
(assert (let ((x52 (x143 x22 x25)) (x121 (x143 x77 x25)) (x132 (x143 x22 x75)) (x136 (x143 x75 x22)) (x141 (x143 x75 x75)) (x31 (x143 x25 x65)) (x10 (x143 x75 x77)) (x95 (x143 x25 x25)) (x87 (x143 x25 x75)) (x155 (x143 x77 x65)) (x43 (x143 x65 x65)) (x80 (x143 x77 x22)) (x24 (x143 x75 x25)) (x89 (x143 x77 x75)) (x125 (x143 x25 x22)) (x72 (x143 x25 x77)) (x97 (x143 x65 x25)) (x53 (x143 x22 x65)) (x140 (x143 x75 x65)) (x55 (x143 x65 x77)) (x115 (x143 x77 x77)) (x36 (x143 x22 x77)) (x105 (x143 x65 x22)) (x7 (x143 x65 x75)) (x120 (x143 x22 x22))) (let ((x96 (= x115 x75)) (x56 (= x95 x22)) (x64 (= x36 x25)) (x1 (= x75 x10)) (x86 (= x7 x22)) (x51 (= x55 x22)) (x50 (= x72 x22)) (x62 (= x22 x52)) (x93 (= x75 x125)) (x130 (= x87 x75)) (x4 (= x72 x75)) (x41 (= x77 x120)) (x134 (= x141 x77)) (x119 (= x115 x77)) (x14 (= x43 x75)) (x11 (= x65 x141)) (x39 (= x10 x25)) (x61 (= x89 x22)) (x152 (= x97 x65)) (x3 (= x22 x87)) (x100 (= x80 x22)) (x45 (= x77 x55)) (x2 (= x65 x136)) (x154 (= x55 x75)) (x34 (= x22 x120)) (x116 (= x65 x140)) (x19 (= x43 x22)) (x29 (= x25 x141)) (x109 (= x36 x75)) (x73 (= x36 x22)) (x88 (= x53 x65)) (x98 (= x75 x52)) (x18 (= x97 x25)) (x153 (= x121 x75)) (x32 (= x77 x52)) (x102 (= x140 x77)) (x126 (= x65 x80)) (x133 (= x53 x25)) (x150 (= x65 x52)) (x17 (= x132 x75)) (x138 (= x22 x121)) (x6 (= x22 x141)) (x27 (= x75 x7)) (x145 (= x75 x120)) (x85 (= x97 x22)) (x149 (= x121 x25)) (x84 (= x77 x31)) (x112 (= x105 x22)) (x9 (= x125 x22)) (x142 (= x155 x77)) (x35 (= x75 x141)) (x54 (= x89 x75)) (x67 (= x77 x24)) (x37 (= x31 x65)) (x123 (= x77 x136)) (x94 (= x125 x25)) (x82 (= x77 x7)) (x23 (= x75 x105)) (x46 (= x65 x87)) (x118 (= x75 x95)) (x110 (= x75 x80)) (x26 (= x77 x10)) (x44 (= x155 x65)) (x139 (= x25 x24)) (x135 (= x25 x87)) (x144 (= x55 x25)) (x111 (= x65 x89)) (x78 (= x53 x22)) (x91 (= x25 x52)) (x122 (= x65 x43)) (x49 (= x105 x77)) (x40 (= x22 x132)) (x148 (= x31 x22)) (x57 (= x155 x25)) (x151 (= x77 x125)) (x76 (= x155 x75)) (x63 (= x87 x77)) (x5 (= x65 x132)) (x60 (= x140 x75)) (x103 (= x132 x77)) (x16 (= x72 x25)) (x48 (= x89 x77)) (x107 (= x25 x136)) (x15 (= x80 x25)) (x12 (= x77 x80)) (x106 (= x115 x25)) (x108 (= x136 x75)) (x71 (= x25 x120)) (x30 (= x95 x25)) (x38 (= x24 x22)) (x33 (= x65 x72)) (x146 (= x115 x65)) (x13 (= x65 x125)) (x66 (= x105 x65)) (x90 (= x65 x121)) (x70 (= x25 x89)) (x157 (= x77 x121)) (x124 (= x53 x77)) (x113 (= x22 x155)) (x59 (= x24 x75)) (x137 (= x95 x77)) (x58 (= x22 x115)) (x104 (= x25 x105)) (x131 (= x22 x136)) (x92 (= x25 x140)) (x20 (= x43 x77)) (x101 (= x25 x132)) (x128 (= x65 x7)) (x74 (= x77 x72)) (x79 (= x97 x75)) (x8 (= x22 x140)) (x99 (= x65 x120)) (x127 (= x95 x65)) (x69 (= x65 x10)) (x147 (= x10 x22)) (x158 (= x31 x25)) (x156 (= x25 x43)) (x21 (= x75 x31)) (x28 (= x7 x25)) (x83 (= x77 x36)) (x42 (= x24 x65)) (x81 (= x77 x97)) (x47 (= x75 x53)) (x129 (= x55 x65)) (x114 (= x36 x65))) (and (and (or (or (and x99 x99) (or (or (or (and x114 x126) (and x150 x13)) (and x5 x2)) (and x88 x66))) (or (or (or (or (or (or (and x111 x69) (or (and x33 x90) (and x146 x146))) (and x129 x44)) (and x126 x114)) (or (or (or (or (and x127 x127) (and x90 x33)) (and x46 x42)) (and x152 x37)) (and x150 x13))) (or (or (or (and x11 x11) (or (and x46 x42) (and x111 x69))) (and x116 x128)) (and x5 x2))) (or (and x88 x66) (or (and x122 x122) (or (or (and x44 x129) (and x152 x37)) (and x128 x116)))))) (and (and (or (or (or (or (or (or (and x81 x84) (and x45 x142)) (and x82 x102)) (and x20 x20)) (and x124 x49)) (or (or (or (or (or (and x48 x26) (or (and x119 x119) (and x74 x157))) (and x45 x142)) (and x12 x83)) (or (or (or (or (and x157 x74) (and x137 x137)) (and x67 x63)) (and x84 x81)) (and x32 x151))) (or (or (and x82 x102) (or (or (and x67 x63) (and x48 x26)) (and x134 x134))) (and x123 x103)))) (or (and x41 x41) (or (and x124 x49) (or (or (and x83 x12) (and x32 x151)) (and x123 x103))))) (or (or (and x71 x71) (or (and x133 x104) (or (or (and x94 x91) (and x15 x64)) (and x107 x101)))) (or (or (and x133 x104) (or (and x156 x156) (or (and x28 x92) (or (and x144 x57) (and x158 x18))))) (or (or (or (and x94 x91) (or (or (and x135 x139) (or (and x149 x16) (and x30 x30))) (and x18 x158))) (or (and x15 x64) (or (and x57 x144) (or (or (and x149 x16) (and x106 x106)) (and x39 x70))))) (or (or (or (and x29 x29) (or (and x135 x139) (and x39 x70))) (and x92 x28)) (and x107 x101)))))) (or (or (or (and x47 x23) (or (and x14 x14) (or (or (and x154 x76) (and x21 x79)) (and x27 x60)))) (or (or (or (or (or (or (and x4 x153) (and x118 x118)) (and x130 x59)) (and x21 x79)) (and x98 x93)) (or (and x110 x109) (or (and x76 x154) (or (and x54 x1) (or (and x96 x96) (and x4 x153)))))) (or (and x108 x17) (or (or (or (and x54 x1) (and x59 x130)) (and x35 x35)) (and x60 x27))))) (or (and x145 x145) (or (or (or (and x93 x98) (and x109 x110)) (and x108 x17)) (and x47 x23)))))) (or (or (or (or (or (or (or (or (and x138 x50) (and x58 x58)) (and x147 x61)) (and x113 x51)) (and x73 x100)) (or (and x9 x62) (or (and x85 x148) (or (or (and x138 x50) (and x56 x56)) (and x3 x38))))) (or (and x40 x131) (or (and x8 x86) (or (or (and x3 x38) (and x147 x61)) (and x6 x6))))) (or (or (or (and x8 x86) (or (and x148 x85) (and x51 x113))) (and x19 x19)) (and x78 x112))) (or (and x34 x34) (or (and x78 x112) (or (or (and x62 x9) (and x100 x73)) (and x131 x40)))))))))
(assert (not (and (and (= (x143 x25 x77) x65) (and (= (x143 x77 x25) x75) (= (x143 x77 x77) x22))) (= x77 (x143 x25 x25)))))
(assert (not (and (= (x143 x25 x25) x75) (and (= x65 (x143 x25 x75)) (and (= x77 (x143 x75 x25)) (= x22 (x143 x75 x75)))))))
(assert (not (and (= x77 (x143 x25 x25)) (and (and (= (x143 x77 x25) x65) (= (x143 x77 x77) x22)) (= x75 (x143 x25 x77))))))
(assert (not (and (= x77 (x143 x22 x22)) (and (= x65 (x143 x22 x77)) (and (= x75 (x143 x77 x22)) (= x25 (x143 x77 x77)))))))
(assert (not (and (and (= (x143 x25 x65) x75) (and (= (x143 x65 x65) x77) (= x22 (x143 x65 x25)))) (= x65 (x143 x25 x25)))))
(assert (not (and (and (and (= x25 (x143 x77 x65)) (= (x143 x77 x77) x22)) (= x75 (x143 x65 x77))) (= x77 (x143 x65 x65)))))
(assert (or (and (and (and (not (= x75 (x143 x22 x75))) (and (not (= (x143 x22 x25) x25)) (not (= x77 (x143 x22 x77))))) (not (= x65 (x143 x22 x65)))) (not (= (x143 x22 x22) x22))) (or (and (not (= (x143 x65 x22) x22)) (and (and (not (= (x143 x65 x75) x75)) (and (not (= x25 (x143 x65 x25))) (not (= x77 (x143 x65 x77))))) (not (= x65 (x143 x65 x65))))) (or (and (not (= (x143 x75 x22) x22)) (and (and (not (= (x143 x75 x75) x75)) (and (not (= x25 (x143 x75 x25))) (not (= x77 (x143 x75 x77))))) (not (= x65 (x143 x75 x65))))) (or (and (not (= (x143 x77 x22) x22)) (and (and (and (not (= (x143 x77 x77) x77)) (not (= x25 (x143 x77 x25)))) (not (= x75 (x143 x77 x75)))) (not (= x65 (x143 x77 x65))))) (and (not (= (x143 x25 x22) x22)) (and (not (= (x143 x25 x65) x65)) (and (and (not (= (x143 x25 x25) x25)) (not (= x77 (x143 x25 x77)))) (not (= (x143 x25 x75) x75))))))))))
(assert (not (and (= x25 (x143 x77 x77)) (and (= x22 (x143 x77 x25)) (and (= x65 (x143 x25 x77)) (= x75 (x143 x25 x25)))))))
(assert (not (and (and (and (= (x143 x65 x25) x22) (= (x143 x65 x65) x75)) (= (x143 x25 x65) x77)) (= (x143 x25 x25) x65))))
(assert (not (and (and (= x65 (x143 x75 x77)) (and (= x25 (x143 x77 x77)) (= x22 (x143 x77 x75)))) (= x77 (x143 x75 x75)))))
(assert (not (and (and (and (= x25 (x143 x77 x75)) (= x22 (x143 x77 x77))) (= (x143 x75 x77) x65)) (= (x143 x75 x75) x77))))
(assert (not (and (and (= x75 (x143 x77 x25)) (and (= x22 (x143 x25 x77)) (= (x143 x25 x25) x65))) (= (x143 x77 x77) x25))))
(assert (not (and (= (x143 x22 x22) x25) (and (= x77 (x143 x22 x25)) (and (= x75 (x143 x25 x25)) (= (x143 x25 x22) x65))))))
(assert (not (and (= (x143 x77 x77) x22) (and (and (= x25 (x143 x22 x77)) (= x65 (x143 x22 x22))) (= (x143 x77 x22) x75)))))
(assert (not (and (and (and (= x25 (x143 x77 x77)) (= (x143 x77 x22) x65)) (= (x143 x22 x77) x75)) (= x77 (x143 x22 x22)))))
(assert (not (and (and (= (x143 x65 x77) x25) (and (= x75 (x143 x77 x65)) (= x22 (x143 x77 x77)))) (= (x143 x65 x65) x77))))
(assert (not (and (and (= x25 (x143 x65 x22)) (and (= (x143 x22 x22) x75) (= x77 (x143 x22 x65)))) (= (x143 x65 x65) x22))))
(assert (not (and (= (x143 x65 x65) x22) (and (and (= x75 (x143 x22 x65)) (= x25 (x143 x22 x22))) (= (x143 x65 x22) x77)))))
(assert (not (and (and (and (= (x143 x65 x65) x77) (= (x143 x65 x22) x25)) (= (x143 x22 x65) x75)) (= x65 (x143 x22 x22)))))
(assert (not (and (= (x143 x65 x65) x25) (and (and (= x75 (x143 x25 x25)) (= (x143 x25 x65) x22)) (= x77 (x143 x65 x25))))))
(assert (not (and (and (and (= (x143 x77 x75) x22) (= x65 (x143 x77 x77))) (= x25 (x143 x75 x77))) (= (x143 x75 x75) x77))))
(assert (not (and (and (= (x143 x65 x25) x22) (and (= (x143 x25 x25) x77) (= (x143 x25 x65) x75))) (= x25 (x143 x65 x65)))))
(assert (not (and (and (= x77 (x143 x75 x22)) (and (= x65 (x143 x22 x22)) (= (x143 x22 x75) x25))) (= x22 (x143 x75 x75)))))
(assert (not (and (= (x143 x22 x22) x65) (and (and (= x77 (x143 x65 x65)) (= (x143 x65 x22) x75)) (= (x143 x22 x65) x25)))))
(assert (let ((x144 (x143 x75 x77)) (x94 (x143 x65 x75)) (x70 (x143 x77 x75)) (x91 (x143 x65 x77)) (x15 (x143 x65 x22)) (x139 (x143 x25 x22)) (x18 (x143 x77 x22)) (x57 (x143 x75 x75)) (x101 (x143 x22 x25)) (x158 (x143 x75 x25)) (x106 (x143 x25 x65)) (x28 (x143 x75 x65)) (x64 (x143 x65 x65)) (x107 (x143 x22 x77)) (x156 (x143 x65 x25)) (x104 (x143 x22 x65)) (x92 (x143 x75 x22)) (x30 (x143 x25 x25)) (x135 (x143 x77 x25)) (x29 (x143 x77 x65)) (x133 (x143 x22 x75)) (x16 (x143 x25 x75)) (x39 (x143 x77 x77)) (x149 (x143 x25 x77)) (x71 (x143 x22 x22))) (and (and (and (and (and (and (and (and (or (or (or (= x30 x75) (or (= x30 x77) (= x30 x25))) (= x65 x30)) (= x30 x22)) (or (= x149 x22) (or (= x65 x149) (or (= x149 x75) (or (= x149 x25) (= x77 x149)))))) (or (or (or (= x16 x75) (or (= x16 x77) (= x25 x16))) (= x65 x16)) (= x22 x16))) (or (or (or (= x75 x106) (or (= x106 x25) (= x106 x77))) (= x106 x65)) (= x106 x22))) (or (= x139 x22) (or (or (= x75 x139) (or (= x77 x139) (= x25 x139))) (= x139 x65)))) (and (or (= x18 x22) (or (= x65 x18) (or (or (= x18 x77) (= x18 x25)) (= x75 x18)))) (and (and (or (or (= x65 x70) (or (= x75 x70) (or (= x70 x77) (= x25 x70)))) (= x22 x70)) (and (or (= x22 x39) (or (= x65 x39) (or (= x75 x39) (or (= x39 x25) (= x39 x77))))) (or (= x135 x22) (or (= x135 x65) (or (= x135 x75) (or (= x135 x25) (= x77 x135))))))) (or (or (= x65 x29) (or (= x75 x29) (or (= x77 x29) (= x25 x29)))) (= x29 x22))))) (and (or (or (or (= x75 x92) (or (= x25 x92) (= x92 x77))) (= x92 x65)) (= x22 x92)) (and (or (= x28 x22) (or (= x65 x28) (or (= x28 x75) (or (= x77 x28) (= x25 x28))))) (and (or (or (= x65 x57) (or (or (= x57 x77) (= x25 x57)) (= x57 x75))) (= x57 x22)) (and (or (or (or (or (= x144 x77) (= x144 x25)) (= x75 x144)) (= x144 x65)) (= x22 x144)) (or (= x22 x158) (or (or (= x158 x75) (or (= x77 x158) (= x158 x25))) (= x65 x158)))))))) (and (and (and (and (or (or (= x65 x91) (or (= x75 x91) (or (= x91 x25) (= x77 x91)))) (= x91 x22)) (or (or (= x65 x156) (or (= x156 x75) (or (= x156 x25) (= x156 x77)))) (= x22 x156))) (or (= x94 x22) (or (= x94 x65) (or (or (= x94 x77) (= x25 x94)) (= x75 x94))))) (or (= x64 x22) (or (or (or (= x64 x77) (= x64 x25)) (= x75 x64)) (= x64 x65)))) (or (= x15 x22) (or (or (= x75 x15) (or (= x15 x25) (= x77 x15))) (= x65 x15))))) (and (and (and (or (or (or (= x75 x133) (or (= x77 x133) (= x25 x133))) (= x65 x133)) (= x22 x133)) (and (or (or (= x65 x101) (or (= x101 x75) (or (= x101 x25) (= x101 x77)))) (= x22 x101)) (or (or (= x65 x107) (or (or (= x107 x25) (= x77 x107)) (= x75 x107))) (= x22 x107)))) (or (= x104 x22) (or (= x65 x104) (or (= x104 x75) (or (= x77 x104) (= x25 x104)))))) (or (= x71 x22) (or (or (or (= x77 x71) (= x71 x25)) (= x71 x75)) (= x65 x71)))))))
(assert (not (and (= x65 (x143 x75 x75)) (and (= x25 (x143 x75 x65)) (and (= x22 (x143 x65 x65)) (= x77 (x143 x65 x75)))))))
(assert (not (and (= x22 (x143 x65 x65)) (and (and (= x77 (x143 x22 x22)) (= (x143 x22 x65) x25)) (= x75 (x143 x65 x22))))))
(assert (let ((x104 (x143 x65 x22)) (x15 (x143 x22 x65)) (x94 (x143 x75 x65)) (x156 (x143 x25 x65)) (x39 (x143 x77 x77)) (x101 (x143 x25 x22)) (x57 (x143 x75 x75)) (x158 (x143 x25 x75)) (x133 (x143 x75 x22)) (x107 (x143 x77 x22)) (x16 (x143 x75 x25)) (x144 (x143 x77 x75)) (x106 (x143 x65 x25)) (x71 (x143 x22 x22)) (x64 (x143 x65 x65)) (x139 (x143 x22 x25)) (x70 (x143 x75 x77)) (x29 (x143 x65 x77)) (x28 (x143 x65 x75)) (x18 (x143 x22 x77)) (x30 (x143 x25 x25)) (x92 (x143 x22 x75)) (x149 (x143 x77 x25)) (x135 (x143 x25 x77)) (x91 (x143 x77 x65))) (and (and (and (and (and (and (not (= x92 x57)) (and (not (= x57 x28)) (and (not (= x144 x92)) (and (not (= x144 x28)) (and (and (and (not (= x158 x28)) (and (not (= x57 x158)) (not (= x158 x144)))) (not (= x158 x92))) (not (= x57 x144))))))) (not (= x92 x28))) (and (and (not (= x106 x139)) (and (not (= x16 x139)) (and (and (not (= x149 x139)) (and (and (not (= x16 x149)) (and (not (= x139 x30)) (and (and (not (= x30 x149)) (not (= x30 x16))) (not (= x30 x106))))) (not (= x149 x106)))) (not (= x106 x16))))) (and (not (= x29 x18)) (and (not (= x18 x70)) (and (and (and (and (not (= x70 x39)) (and (not (= x18 x135)) (and (and (not (= x135 x70)) (not (= x135 x39))) (not (= x29 x135))))) (not (= x39 x29))) (not (= x39 x18))) (not (= x70 x29))))))) (and (not (= x15 x64)) (and (and (and (not (= x15 x91)) (and (and (and (and (and (not (= x156 x91)) (not (= x94 x156))) (not (= x64 x156))) (not (= x156 x15))) (not (= x94 x91))) (not (= x91 x64)))) (not (= x64 x94))) (not (= x15 x94))))) (and (and (and (and (and (not (= x107 x104)) (and (not (= x107 x133)) (and (not (= x101 x71)) (and (not (= x101 x104)) (and (not (= x133 x101)) (not (= x107 x101))))))) (not (= x107 x71))) (not (= x133 x104))) (not (= x71 x133))) (not (= x71 x104)))) (and (and (not (= x15 x71)) (and (not (= x92 x71)) (and (not (= x92 x15)) (and (not (= x18 x71)) (and (and (and (not (= x139 x71)) (and (not (= x139 x15)) (and (not (= x139 x18)) (not (= x92 x139))))) (not (= x18 x92))) (not (= x18 x15))))))) (and (and (not (= x104 x64)) (and (and (and (not (= x29 x104)) (and (not (= x29 x64)) (and (not (= x28 x29)) (and (and (not (= x106 x64)) (and (not (= x28 x106)) (not (= x106 x29)))) (not (= x104 x106)))))) (not (= x28 x64))) (not (= x28 x104)))) (and (and (and (and (not (= x57 x94)) (and (not (= x133 x70)) (and (not (= x94 x70)) (and (not (= x57 x70)) (and (not (= x133 x16)) (and (not (= x16 x94)) (and (not (= x70 x16)) (not (= x16 x57))))))))) (not (= x57 x133))) (not (= x94 x133))) (and (and (not (= x107 x91)) (and (not (= x144 x107)) (and (and (and (and (and (not (= x107 x149)) (and (not (= x91 x149)) (and (not (= x149 x144)) (not (= x149 x39))))) (not (= x144 x39))) (not (= x39 x91))) (not (= x107 x39))) (not (= x144 x91))))) (and (not (= x101 x156)) (and (and (and (and (and (and (not (= x30 x101)) (and (and (not (= x158 x30)) (not (= x30 x135))) (not (= x156 x30)))) (not (= x158 x135))) (not (= x135 x156))) (not (= x101 x135))) (not (= x156 x158))) (not (= x101 x158)))))))))))
(assert (not (and (and (= (x143 x65 x75) x77) (and (= (x143 x75 x75) x25) (= x22 (x143 x75 x65)))) (= (x143 x65 x65) x75))))
(assert (not (and (= x25 (x143 x75 x75)) (and (and (= (x143 x25 x75) x77) (= x65 (x143 x25 x25))) (= x22 (x143 x75 x25))))))
(assert (not (and (= x65 (x143 x77 x77)) (and (= x25 (x143 x77 x65)) (and (= (x143 x65 x65) x75) (= (x143 x65 x77) x22))))))
(assert (not (and (and (= (x143 x77 x75) x22) (and (= x65 (x143 x75 x77)) (= (x143 x75 x75) x25))) (= (x143 x77 x77) x75))))
(assert (not (and (and (= (x143 x77 x22) x25) (and (= (x143 x22 x77) x75) (= x65 (x143 x22 x22)))) (= x22 (x143 x77 x77)))))
(assert (not (and (and (and (= (x143 x25 x22) x75) (= (x143 x25 x25) x77)) (= x65 (x143 x22 x25))) (= (x143 x22 x22) x25))))
(assert (not (and (and (and (= x77 (x143 x25 x75)) (= x22 (x143 x25 x25))) (= (x143 x75 x25) x65)) (= x25 (x143 x75 x75)))))
(assert (not (and (= x75 (x143 x25 x25)) (and (= (x143 x25 x75) x22) (and (= x77 (x143 x75 x25)) (= x65 (x143 x75 x75)))))))
(assert (let ((x107 (x143 x77 x22)) (x137 (x143 x22 x77)) (x54 (x143 x22 x65)) (x13 (x143 x22 x22)) (x139 (x143 x25 x65)) (x135 (x143 x25 x22)) (x80 (x143 x75 x75)) (x29 (x143 x75 x25)) (x16 (x143 x25 x77)) (x15 (x143 x77 x75)) (x149 (x143 x25 x25)) (x101 (x143 x77 x65)) (x106 (x143 x25 x75)) (x18 (x143 x65 x25)) (x153 (x143 x65 x65)) (x4 (x143 x65 x22)) (x141 (x143 x65 x75)) (x134 (x143 x22 x75)) (x67 (x143 x75 x22)) (x70 (x143 x77 x25)) (x158 (x143 x22 x25)) (x95 (x143 x65 x77)) (x64 (x143 x77 x77)) (x36 (x143 x75 x65)) (x71 (x143 x75 x77))) (let ((x97 (= x65 x64)) (x33 (= x22 x36)) (x102 (= x65 x80)) (x52 (= x22 x16)) (x156 (= x16 x25)) (x62 (= x158 x22)) (x58 (= x107 x75)) (x89 (= x25 x15)) (x140 (= x29 x75)) (x83 (= x95 x25)) (x113 (= x107 x65)) (x88 (= x77 x13)) (x129 (= x25 x4)) (x38 (= x67 x75)) (x120 (= x18 x77)) (x82 (= x65 x15)) (x17 (= x65 x36)) (x85 (= x65 x134)) (x146 (= x22 x153)) (x3 (= x75 x4)) (x1 (= x77 x153)) (x48 (= x77 x80)) (x90 (= x22 x101)) (x86 (= x65 x67)) (x26 (= x15 x77)) (x130 (= x36 x77)) (x150 (= x77 x54)) (x126 (= x77 x107)) (x76 (= x101 x75)) (x104 (= x64 x77)) (x103 (= x139 x25)) (x37 (= x67 x25)) (x87 (= x75 x64)) (x110 (= x101 x65)) (x98 (= x95 x65)) (x51 (= x135 x65)) (x20 (= x71 x22)) (x12 (= x25 x141)) (x119 (= x106 x25)) (x122 (= x77 x134)) (x124 (= x36 x25)) (x2 (= x4 x77)) (x30 (= x25 x149)) (x116 (= x137 x77)) (x112 (= x4 x22)) (x114 (= x135 x77)) (x44 (= x25 x13)) (x74 (= x25 x29)) (x45 (= x65 x71)) (x9 (= x137 x22)) (x53 (= x15 x22)) (x5 (= x77 x67)) (x136 (= x75 x106)) (x32 (= x80 x22)) (x21 (= x75 x141)) (x60 (= x153 x75)) (x108 (= x65 x153)) (x92 (= x70 x25)) (x109 (= x65 x139)) (x27 (= x36 x75)) (x91 (= x64 x25)) (x69 (= x134 x25)) (x132 (= x15 x75)) (x128 (= x158 x77)) (x115 (= x71 x25)) (x121 (= x16 x75)) (x49 (= x25 x153)) (x79 (= x95 x75)) (x144 (= x149 x75)) (x131 (= x107 x22)) (x105 (= x106 x22)) (x19 (= x65 x13)) (x57 (= x65 x149)) (x154 (= x139 x75)) (x42 (= x25 x158)) (x14 (= x18 x65)) (x99 (= x75 x137)) (x111 (= x54 x25)) (x133 (= x77 x16)) (x123 (= x25 x101)) (x41 (= x95 x77)) (x93 (= x65 x141)) (x72 (= x75 x70)) (x35 (= x75 x18)) (x6 (= x137 x65)) (x145 (= x141 x22)) (x28 (= x22 x149)) (x46 (= x25 x137)) (x47 (= x22 x18)) (x138 (= x54 x75)) (x78 (= x22 x67)) (x61 (= x65 x158)) (x55 (= x77 x71)) (x50 (= x75 x135)) (x155 (= x29 x77)) (x10 (= x80 x25)) (x40 (= x135 x22)) (x63 (= x106 x77)) (x84 (= x29 x65)) (x39 (= x77 x149)) (x152 (= x107 x25)) (x142 (= x106 x65)) (x125 (= x22 x70)) (x11 (= x25 x135)) (x81 (= x80 x75)) (x23 (= x22 x95)) (x118 (= x77 x141)) (x96 (= x139 x77)) (x148 (= x54 x65)) (x34 (= x22 x13)) (x100 (= x22 x54)) (x147 (= x13 x75)) (x24 (= x65 x70)) (x66 (= x75 x158)) (x56 (= x75 x134)) (x8 (= x65 x4)) (x94 (= x77 x70)) (x7 (= x71 x75)) (x157 (= x64 x22)) (x73 (= x22 x134)) (x43 (= x29 x22)) (x151 (= x25 x18)) (x127 (= x139 x22)) (x59 (= x101 x77)) (x31 (= x16 x65))) (and (and (and (and (and (and (and (or (or (or x84 (or x24 x57)) x14) x61) (or (or (or x142 (or x31 x57)) x109) x51)) (and (and (or (or x154 (or (or x121 x144) x136)) x50) (or (or x35 (or (or x144 x72) x140)) x66)) (and (and (or x114 (or x96 (or (or x39 x133) x63))) (or (or (or (or x39 x94) x155) x120) x128)) (and (or (or x151 (or x74 (or x92 x30))) x42) (or (or x103 (or (or x156 x30) x119)) x11))))) (and (or (or (or x105 (or x28 x52)) x127) x40) (or (or x47 (or (or x125 x28) x43)) x62))) (and (and (or (or x90 (or x53 (or x157 x125))) x131) (or (or (or (or x52 x157) x20) x23) x9)) (and (and (and (or (or x79 (or (or x87 x121) x7)) x99) (or (or (or (or x87 x72) x132) x76) x58)) (and (and (or (or (or x115 (or x156 x91)) x83) x46) (or (or (or x89 (or x92 x91)) x123) x152)) (and (or x126 (or x59 (or x26 (or x104 x94)))) (or x116 (or (or x55 (or x104 x133)) x41))))) (and (or x113 (or x110 (or (or x24 x97) x82))) (or x6 (or (or (or x97 x31) x45) x98)))))) (and (and (or (or (or x32 (or x53 x105)) x145) x73) (or (or x33 (or (or x20 x43) x32)) x78)) (and (and (and (and (or (or x118 (or (or x63 x26) x48)) x122) (or (or (or x48 (or x155 x55)) x130) x5)) (and (or x69 (or (or (or x119 x89) x10) x12)) (or (or (or (or x115 x74) x10) x124) x37))) (and (or x38 (or (or (or x7 x140) x81) x27)) (or (or x21 (or (or x136 x132) x81)) x56))) (and (or (or (or (or x142 x82) x102) x93) x85) (or (or (or x102 (or x84 x45)) x17) x86))))) (and (and (or (or (or x145 (or x23 x47)) x146) x112) (or x100 (or x146 (or (or x127 x90) x33)))) (and (and (and (or x3 (or x60 (or x21 (or x79 x35)))) (or (or (or x27 (or x154 x76)) x60) x138)) (and (and (or x2 (or x1 (or (or x120 x41) x118))) (or (or x1 (or x130 (or x59 x96))) x150)) (and (or x129 (or x49 (or x12 (or x151 x83)))) (or x111 (or (or x124 (or x103 x123)) x49))))) (and (or (or (or x93 (or x98 x14)) x108) x8) (or x148 (or x108 (or x17 (or x109 x110)))))))) (and (and (or x34 (or (or (or x131 x40) x78) x112)) (or x34 (or x100 (or (or x62 x9) x73)))) (and (and (or (or (or (or x61 x6) x85) x148) x19) (or x19 (or x8 (or (or x51 x113) x86)))) (and (and (or x147 (or (or (or x58 x50) x38) x3)) (or (or (or (or x99 x66) x56) x138) x147)) (and (and (or x44 (or (or (or x11 x152) x37) x129)) (or x44 (or (or x69 (or x46 x42)) x111))) (and (or (or (or (or x126 x114) x5) x2) x88) (or (or x150 (or x122 (or x128 x116))) x88))))))))))
(assert (not (and (and (= x22 (x143 x65 x75)) (and (= (x143 x75 x75) x25) (= (x143 x75 x65) x77))) (= (x143 x65 x65) x75))))
(assert (not (and (= (x143 x77 x77) x75) (and (= x65 (x143 x77 x75)) (and (= x25 (x143 x75 x77)) (= x22 (x143 x75 x75)))))))
(assert (not (and (and (= (x143 x65 x25) x22) (and (= x75 (x143 x25 x25)) (= x77 (x143 x25 x65)))) (= x25 (x143 x65 x65)))))
(assert (not (and (and (and (= x65 (x143 x22 x22)) (= (x143 x22 x75) x77)) (= (x143 x75 x22) x25)) (= x22 (x143 x75 x75)))))
(assert (not (and (= (x143 x75 x75) x65) (and (= x25 (x143 x75 x65)) (and (= x77 (x143 x65 x65)) (= x22 (x143 x65 x75)))))))
(assert (or (and (and (and (and (not (= (x143 x77 (x143 x22 x77)) x77)) (not (= x25 (x143 x25 (x143 x22 x25))))) (not (= (x143 x75 (x143 x22 x75)) x75))) (not (= (x143 x65 (x143 x22 x65)) x65))) (not (= (x143 x22 (x143 x22 x22)) x22))) (or (or (or (and (not (= (x143 x22 (x143 x25 x22)) x22)) (and (not (= x65 (x143 x65 (x143 x25 x65)))) (and (not (= (x143 x75 (x143 x25 x75)) x75)) (and (not (= x77 (x143 x77 (x143 x25 x77)))) (not (= (x143 x25 (x143 x25 x25)) x25)))))) (and (not (= (x143 x22 (x143 x77 x22)) x22)) (and (not (= (x143 x65 (x143 x77 x65)) x65)) (and (and (not (= (x143 x25 (x143 x77 x25)) x25)) (not (= x77 (x143 x77 (x143 x77 x77))))) (not (= (x143 x75 (x143 x77 x75)) x75)))))) (and (not (= x22 (x143 x22 (x143 x75 x22)))) (and (not (= (x143 x65 (x143 x75 x65)) x65)) (and (not (= x75 (x143 x75 (x143 x75 x75)))) (and (not (= (x143 x77 (x143 x75 x77)) x77)) (not (= (x143 x25 (x143 x75 x25)) x25))))))) (and (not (= x22 (x143 x22 (x143 x65 x22)))) (and (not (= x65 (x143 x65 (x143 x65 x65)))) (and (and (not (= x77 (x143 x77 (x143 x65 x77)))) (not (= (x143 x25 (x143 x65 x25)) x25))) (not (= (x143 x75 (x143 x65 x75)) x75))))))))
(assert (not (and (= x22 (x143 x25 x25)) (and (= x77 (x143 x25 x22)) (and (= (x143 x22 x25) x75) (= (x143 x22 x22) x65))))))
(assert (not (and (and (and (= (x143 x65 x65) x75) (= x25 (x143 x65 x22))) (= (x143 x22 x65) x77)) (= (x143 x22 x22) x65))))
(assert (not (and (and (and (= (x143 x75 x25) x65) (= x77 (x143 x75 x75))) (= (x143 x25 x75) x22)) (= (x143 x25 x25) x75))))
(assert (not (and (= x22 (x143 x77 x77)) (and (= x65 (x143 x77 x22)) (and (= (x143 x22 x22) x25) (= x75 (x143 x22 x77)))))))
(assert (not (and (= x22 (x143 x65 x65)) (and (= (x143 x65 x22) x25) (and (= (x143 x22 x22) x77) (= x75 (x143 x22 x65)))))))
(assert (not (and (and (and (= x22 (x143 x65 x75)) (= (x143 x65 x65) x25)) (= (x143 x75 x65) x77)) (= (x143 x75 x75) x65))))
(assert (not (and (and (= (x143 x77 x65) x75) (and (= (x143 x65 x77) x25) (= (x143 x65 x65) x22))) (= x65 (x143 x77 x77)))))
(assert (not (and (and (= (x143 x25 x65) x22) (and (= (x143 x65 x25) x77) (= (x143 x65 x65) x75))) (= (x143 x25 x25) x65))))
(assert (not (and (= (x143 x25 x25) x65) (and (and (= x22 (x143 x65 x65)) (= (x143 x65 x25) x77)) (= x75 (x143 x25 x65))))))
(assert (not (and (and (= x22 (x143 x65 x77)) (and (= x25 (x143 x77 x65)) (= x75 (x143 x77 x77)))) (= (x143 x65 x65) x77))))
(assert (let ((x30 (x143 x25 x25)) (x16 (x143 x75 x75)) (x139 (x143 x22 x22)) (x149 (x143 x77 x77)) (x106 (x143 x65 x65))) (and (and (and (and (not (= x25 (x143 x30 x30))) (not (= x77 (x143 x149 x149)))) (not (= (x143 x16 x16) x75))) (not (= (x143 x106 x106) x65))) (not (= (x143 x139 x139) x22)))))
(assert (not (and (and (= (x143 x77 x25) x65) (and (= (x143 x25 x77) x22) (= x75 (x143 x25 x25)))) (= x25 (x143 x77 x77)))))
(assert (let ((x30 (x143 x25 x25)) (x28 (x143 x65 x75)) (x29 (x143 x75 x75)) (x71 (x143 x22 x22)) (x144 (x143 x65 x77)) (x57 (x143 x77 x65)) (x106 (x143 x77 x77)) (x149 (x143 x77 x25)) (x92 (x143 x75 x65)) (x139 (x143 x75 x25)) (x156 (x143 x65 x65)) (x94 (x143 x25 x22)) (x39 (x143 x75 x77)) (x104 (x143 x65 x22)) (x18 (x143 x65 x25)) (x64 (x143 x22 x77)) (x133 (x143 x22 x65)) (x158 (x143 x25 x65)) (x16 (x143 x25 x77)) (x70 (x143 x77 x75)) (x15 (x143 x77 x22)) (x91 (x143 x22 x25)) (x107 (x143 x75 x22)) (x101 (x143 x22 x75)) (x135 (x143 x25 x75))) (and (and (and (or (or (or (not (= x29 x29)) (or (not (= x135 x139)) (not (= x39 x70)))) (not (= x92 x28))) (not (= x101 x107))) (and (or (not (= x91 x94)) (or (not (= x158 x18)) (or (or (not (= x30 x30)) (not (= x149 x16))) (not (= x135 x139))))) (or (or (not (= x57 x144)) (or (or (not (= x106 x106)) (not (= x149 x16))) (not (= x70 x39)))) (not (= x64 x15))))) (or (or (or (or (not (= x158 x18)) (not (= x144 x57))) (not (= x28 x92))) (not (= x156 x156))) (not (= x133 x104)))) (or (not (= x71 x71)) (or (or (not (= x101 x107)) (or (not (= x15 x64)) (not (= x91 x94)))) (not (= x133 x104)))))))
(assert (not (and (and (= x65 (x143 x75 x22)) (and (= (x143 x22 x22) x25) (= x77 (x143 x22 x75)))) (= x22 (x143 x75 x75)))))
(assert (not (and (= x77 (x143 x75 x75)) (and (= (x143 x75 x77) x25) (and (= x65 (x143 x77 x75)) (= (x143 x77 x77) x22))))))
(assert (not (and (and (and (= x75 (x143 x22 x22)) (= x65 (x143 x22 x77))) (= x25 (x143 x77 x22))) (= (x143 x77 x77) x22))))
(assert (not (and (= (x143 x25 x25) x65) (and (and (= x75 (x143 x65 x25)) (= x77 (x143 x65 x65))) (= (x143 x25 x65) x22)))))
(assert (not (and (and (= x25 (x143 x22 x77)) (and (= x75 (x143 x77 x77)) (= (x143 x77 x22) x65))) (= x77 (x143 x22 x22)))))
(assert (not (and (= x22 (x143 x25 x25)) (and (= x75 (x143 x25 x22)) (and (= x65 (x143 x22 x22)) (= x77 (x143 x22 x25)))))))
(assert (not (and (= (x143 x22 x22) x75) (and (and (= x25 (x143 x75 x75)) (= x77 (x143 x75 x22))) (= (x143 x22 x75) x65)))))
(assert (let ((x156 (not (= (x143 x65 x65) x65))) (x57 (x143 x77 x65)) (x139 (x143 x75 x25)) (x64 (x143 x22 x77)) (x39 (x143 x75 x77)) (x144 (x143 x65 x77)) (x133 (x143 x22 x65)) (x158 (x143 x25 x65)) (x70 (x143 x77 x75)) (x135 (x143 x25 x75)) (x71 (not (= x22 (x143 x22 x22)))) (x104 (x143 x65 x22)) (x29 (not (= (x143 x75 x75) x75))) (x91 (x143 x22 x25)) (x28 (x143 x65 x75)) (x92 (x143 x75 x65)) (x149 (x143 x77 x25)) (x101 (x143 x22 x75)) (x107 (x143 x75 x22)) (x30 (not (= x25 (x143 x25 x25)))) (x94 (x143 x25 x22)) (x15 (x143 x77 x22)) (x18 (x143 x65 x25)) (x106 (not (= (x143 x77 x77) x77))) (x16 (x143 x25 x77))) (and (and (and (or (not (= x22 x104)) (not (= x133 x22))) (and (or (not (= x22 x107)) (not (= x22 x101))) (and (or (not (= x94 x22)) (not (= x91 x22))) (or (not (= x22 x15)) (not (= x22 x64)))))) (or x71 x71)) (and (and (and (and (and (or (not (= x25 x18)) (not (= x158 x25))) (and (or (not (= x139 x25)) (not (= x25 x135))) (and (or x30 x30) (or (not (= x25 x16)) (not (= x25 x149)))))) (or (not (= x25 x91)) (not (= x25 x94)))) (and (or (not (= x15 x77)) (not (= x77 x64))) (and (or (not (= x57 x77)) (not (= x77 x144))) (and (or (not (= x39 x77)) (not (= x77 x70))) (and (or x106 x106) (or (not (= x77 x149)) (not (= x16 x77)))))))) (and (or (not (= x75 x107)) (not (= x101 x75))) (and (or (not (= x75 x92)) (not (= x75 x28))) (and (or x29 x29) (and (or (not (= x139 x75)) (not (= x75 x135))) (or (not (= x70 x75)) (not (= x75 x39)))))))) (and (and (and (or (not (= x28 x65)) (not (= x65 x92))) (and (or (not (= x158 x65)) (not (= x18 x65))) (or (not (= x65 x144)) (not (= x57 x65))))) (or x156 x156)) (or (not (= x133 x65)) (not (= x104 x65))))))))
(assert (not (and (= (x143 x22 x22) x25) (and (and (= x77 (x143 x25 x25)) (= x65 (x143 x25 x22))) (= (x143 x22 x25) x75)))))
(assert (not (and (and (= (x143 x77 x25) x75) (and (= (x143 x25 x77) x65) (= x22 (x143 x25 x25)))) (= (x143 x77 x77) x25))))
(assert (not (and (= (x143 x22 x22) x77) (and (= (x143 x22 x77) x75) (and (= (x143 x77 x22) x25) (= x65 (x143 x77 x77)))))))
(assert (not (and (and (and (= x65 (x143 x75 x77)) (= (x143 x75 x75) x22)) (= (x143 x77 x75) x25)) (= x75 (x143 x77 x77)))))
(assert (not (and (= (x143 x75 x75) x65) (and (and (= x25 (x143 x65 x75)) (= x22 (x143 x65 x65))) (= (x143 x75 x65) x77)))))
(assert (not (and (= (x143 x77 x77) x65) (and (and (= (x143 x65 x65) x25) (= x22 (x143 x65 x77))) (= x75 (x143 x77 x65))))))
(assert (and (not (= x22 x65)) (and (and (and (and (not (= x77 x65)) (and (not (= x75 x77)) (and (not (= x25 x22)) (and (not (= x25 x65)) (and (not (= x77 x25)) (not (= x75 x25))))))) (not (= x77 x22))) (not (= x75 x65))) (not (= x75 x22)))))
(assert (not (and (and (= x22 (x143 x75 x65)) (and (= (x143 x65 x65) x25) (= x77 (x143 x65 x75)))) (= (x143 x75 x75) x65))))
(assert (not (and (and (and (= x75 (x143 x65 x22)) (= x25 (x143 x65 x65))) (= x77 (x143 x22 x65))) (= x65 (x143 x22 x22)))))
(assert (not (and (and (= (x143 x77 x75) x25) (and (= x65 (x143 x75 x75)) (= x22 (x143 x75 x77)))) (= x75 (x143 x77 x77)))))
(assert (not (and (and (and (= x77 (x143 x22 x22)) (= (x143 x22 x75) x25)) (= x65 (x143 x75 x22))) (= x22 (x143 x75 x75)))))
(assert (not (and (= (x143 x65 x65) x75) (and (and (= x77 (x143 x75 x75)) (= (x143 x75 x65) x25)) (= x22 (x143 x65 x75))))))
(assert (not (and (= x75 (x143 x22 x22)) (and (and (= x77 (x143 x75 x75)) (= (x143 x75 x22) x25)) (= x65 (x143 x22 x75))))))
(assert (not (and (and (and (= x65 (x143 x22 x75)) (= x25 (x143 x22 x22))) (= x77 (x143 x75 x22))) (= x22 (x143 x75 x75)))))
(assert (not (and (and (= (x143 x77 x75) x22) (and (= x25 (x143 x75 x77)) (= x65 (x143 x75 x75)))) (= x75 (x143 x77 x77)))))
(assert (not (and (and (and (= (x143 x22 x65) x25) (= (x143 x22 x22) x75)) (= (x143 x65 x22) x77)) (= (x143 x65 x65) x22))))
(assert (not (and (= (x143 x25 x25) x75) (and (= (x143 x25 x75) x77) (and (= x65 (x143 x75 x75)) (= (x143 x75 x25) x22))))))
(assert (not (and (and (and (= x25 (x143 x22 x22)) (= (x143 x22 x77) x65)) (= (x143 x77 x22) x75)) (= x22 (x143 x77 x77)))))
(assert (not (and (and (= (x143 x25 x22) x75) (and (= (x143 x22 x22) x77) (= x65 (x143 x22 x25)))) (= (x143 x25 x25) x22))))
(assert (not (and (and (and (= (x143 x25 x25) x22) (= x75 (x143 x25 x65))) (= (x143 x65 x25) x77)) (= (x143 x65 x65) x25))))
(assert (not (and (= x22 (x143 x25 x25)) (and (and (= x65 (x143 x22 x25)) (= (x143 x22 x22) x75)) (= (x143 x25 x22) x77)))))
(assert (not (and (and (and (= x25 (x143 x75 x22)) (= x65 (x143 x75 x75))) (= x77 (x143 x22 x75))) (= (x143 x22 x22) x75))))
(assert (not (and (= x77 (x143 x75 x75)) (and (and (= (x143 x77 x75) x65) (= (x143 x77 x77) x25)) (= x22 (x143 x75 x77))))))
(assert (not (and (= (x143 x22 x22) x75) (and (and (= (x143 x75 x22) x65) (= x77 (x143 x75 x75))) (= (x143 x22 x75) x25)))))
(assert (not (and (= (x143 x77 x77) x25) (and (and (= x75 (x143 x25 x77)) (= x65 (x143 x25 x25))) (= x22 (x143 x77 x25))))))
(assert (not (and (= x65 (x143 x22 x22)) (and (= x25 (x143 x22 x65)) (and (= x75 (x143 x65 x65)) (= x77 (x143 x65 x22)))))))
(assert (and (not (= (x143 x22 x22) x22)) (and (and (not (= (x143 x75 x75) x75)) (and (not (= (x143 x77 x77) x77)) (not (= x25 (x143 x25 x25))))) (not (= x65 (x143 x65 x65))))))
(assert (not (and (= (x143 x25 x25) x77) (and (and (= x22 (x143 x77 x25)) (= x65 (x143 x77 x77))) (= x75 (x143 x25 x77))))))
(assert (not (and (= (x143 x65 x65) x75) (and (= (x143 x65 x75) x25) (and (= x22 (x143 x75 x65)) (= x77 (x143 x75 x75)))))))
(assert (not (and (and (= x75 (x143 x65 x77)) (and (= x25 (x143 x77 x77)) (= (x143 x77 x65) x22))) (= x77 (x143 x65 x65)))))
(assert (not (and (= x75 (x143 x65 x65)) (and (= x25 (x143 x65 x75)) (and (= x77 (x143 x75 x65)) (= (x143 x75 x75) x22))))))
(assert (not (and (= x77 (x143 x22 x22)) (and (= x65 (x143 x22 x77)) (and (= (x143 x77 x77) x75) (= x25 (x143 x77 x22)))))))
(assert (not (and (and (and (= (x143 x25 x25) x77) (= x22 (x143 x25 x65))) (= x75 (x143 x65 x25))) (= (x143 x65 x65) x25))))
(assert (not (and (= (x143 x22 x22) x77) (and (and (= x75 (x143 x77 x22)) (= (x143 x77 x77) x65)) (= x25 (x143 x22 x77))))))
(assert (not (and (and (and (= (x143 x65 x77) x75) (= x25 (x143 x65 x65))) (= x22 (x143 x77 x65))) (= x65 (x143 x77 x77)))))
(assert (or (= (x143 (x143 x22 x22) x22) x22) (or (or (or (= x25 (x143 (x143 x25 x25) x25)) (= (x143 (x143 x77 x77) x77) x77)) (= x75 (x143 (x143 x75 x75) x75))) (= (x143 (x143 x65 x65) x65) x65))))
(assert (not (and (= x77 (x143 x75 x75)) (and (= x22 (x143 x75 x77)) (and (= x25 (x143 x77 x75)) (= x65 (x143 x77 x77)))))))
(assert (not (and (and (and (= (x143 x65 x77) x25) (= (x143 x65 x65) x75)) (= x22 (x143 x77 x65))) (= x65 (x143 x77 x77)))))
(assert (not (and (= (x143 x25 x25) x77) (and (and (= (x143 x77 x77) x75) (= x22 (x143 x77 x25))) (= x65 (x143 x25 x77))))))
(assert (not (and (= (x143 x77 x77) x65) (and (= (x143 x77 x65) x25) (and (= (x143 x65 x77) x75) (= (x143 x65 x65) x22))))))
(assert (not (and (and (= x77 (x143 x75 x25)) (and (= x65 (x143 x25 x25)) (= (x143 x25 x75) x22))) (= x25 (x143 x75 x75)))))
(assert (not (and (= (x143 x22 x22) x75) (and (and (= x65 (x143 x75 x22)) (= (x143 x75 x75) x25)) (= x77 (x143 x22 x75))))))
(assert (not (and (and (= x25 (x143 x75 x22)) (and (= x77 (x143 x22 x22)) (= (x143 x22 x75) x65))) (= (x143 x75 x75) x22))))
(assert (not (and (and (= (x143 x65 x77) x25) (and (= (x143 x77 x77) x75) (= (x143 x77 x65) x22))) (= (x143 x65 x65) x77))))
(assert (not (and (= (x143 x22 x22) x65) (and (= x75 (x143 x22 x65)) (and (= (x143 x65 x65) x25) (= x77 (x143 x65 x22)))))))
(assert (let ((x106 (x143 x65 x65)) (x139 (x143 x22 x22)) (x16 (x143 x75 x75)) (x149 (x143 x77 x77)) (x30 (x143 x25 x25))) (or (and (not (= x22 x139)) (and (not (= x106 x22)) (and (and (not (= x30 x22)) (not (= x22 x149))) (not (= x22 x16))))) (or (or (and (not (= x75 x139)) (and (and (and (not (= x75 x30)) (not (= x149 x75))) (not (= x75 x16))) (not (= x75 x106)))) (or (and (not (= x139 x77)) (and (and (not (= x16 x77)) (and (not (= x149 x77)) (not (= x77 x30)))) (not (= x106 x77)))) (and (and (and (not (= x25 x16)) (and (not (= x25 x30)) (not (= x149 x25)))) (not (= x106 x25))) (not (= x25 x139))))) (and (not (= x65 x139)) (and (not (= x106 x65)) (and (not (= x65 x16)) (and (not (= x30 x65)) (not (= x65 x149))))))))))
(assert (not (and (and (= x77 (x143 x22 x25)) (and (= (x143 x25 x25) x65) (= (x143 x25 x22) x75))) (= x25 (x143 x22 x22)))))
(assert (not (and (and (and (= x65 (x143 x25 x75)) (= x77 (x143 x25 x25))) (= x22 (x143 x75 x25))) (= x25 (x143 x75 x75)))))
(assert (not (and (and (= (x143 x22 x25) x75) (and (= (x143 x25 x25) x65) (= (x143 x25 x22) x77))) (= (x143 x22 x22) x25))))
(assert (not (and (= (x143 x25 x25) x22) (and (and (= x77 (x143 x22 x22)) (= (x143 x22 x25) x75)) (= x65 (x143 x25 x22))))))
(assert (not (and (and (= x65 (x143 x25 x75)) (and (= x77 (x143 x75 x75)) (= x22 (x143 x75 x25)))) (= (x143 x25 x25) x75))))
(assert (not (and (and (and (= (x143 x25 x77) x75) (= (x143 x25 x25) x22)) (= (x143 x77 x25) x65)) (= x25 (x143 x77 x77)))))
(check-sat)
(exit)
